c --- [ banner ] -------------------------------------------------------------
c 
c CaDiCaL Radically Simplified CDCL SAT Solver
c Copyright (c) 2016-2021 A. Biere, M. Fleury, N. Froleyks
c 
c Version 1.5.2 ca9bff05c11bde5eae4912f9932871d1527e61d8
c g++ (GCC) 9.3.0 -Wall -Wextra -O3 -DNDEBUG
c Thu Jul 28 23:42:48 EDT 2022 Linux gra-login3 3.10.0-1160.66.1.el7.x86_64 x86_64
c 
c --- [ limit ] --------------------------------------------------------------
c 
c setting conflict limit to 200000 conflicts (due to '200000')
c 
c --- [ parsing input ] ------------------------------------------------------
c 
c reading DIMACS file from '23.cubes788.adj'
c opening file to read '23.cubes788.adj'
c found 'p cnf 5320 914897' header
c parsed 914897 clauses in 8.27 seconds process time
c closing file '23.cubes788.adj'
c after reading 637830023 bytes 608.3 MB
c 
c --- [ options ] ------------------------------------------------------------
c 
c all options are set to their default value
c 
c --- [ solving ] ------------------------------------------------------------
c 
c time measured in process time since initialization
c 
c  seconds   reductions  redundant  irredundant
c          MB    restarts       trail      variables
c           level   conflicts       glue        remaining
c 
c *  8.27 632  0 0   0    0    0  0% 0 914847 2049 39%
c {  8.58 651  0 0   0    0    0  0% 0 914847 2049 39%
c i  9.20 680 631 0   1   34   27 29% 3 914847 2037 38%
c i  9.24 681 590 0   1   36   28 29% 3 914847 2036 38%
c i 10.89 706 171 0  17  134   93 24% 11 914847 2035 38%
c i 11.03 708 152 0  22  154  109 25% 14 914847 2034 38%
c i 11.09 709 151 0  23  158  111 25% 13 914847 2033 38%
c - 13.72 660 129 1  55  301  218 26% 26 124595 2033 38%
c i 13.89 644 129 1  59  317  233 26% 27 124595 2032 38%
c i 14.07 644 119 1  74  379  280 27% 27 124595 2031 38%
c i 14.10 644 117 1  76  395  293 27% 27 124595 2029 38%
c i 14.11 644 116 1  78  403  300 27% 28 124595 2028 38%
c i 14.20 644 114 1  87  445  334 27% 29 124595 2027 38%
c i 14.35 644 112 1  99  547  411 27% 30 124595 2026 38%
c i 14.49 644 108 1 108  603  457 27% 30 124595 2025 38%
c i 14.51 644 106 1 109  621  471 27% 30 124595 2024 38%
c i 14.57 644 91 1 109  791  592 27% 29 124595 2023 38%
c i 14.58 644 87 1 109  828  608 27% 29 124595 2022 38%
c i 14.58 644 86 1 109  848  618 27% 28 124595 2021 38%
c i 14.59 644 85 1 109  856  621 27% 28 124595 2020 38%
c 
c  seconds   reductions  redundant   irredundant
c          MB    restarts       trail       variables
c           level   conflicts       glue         remaining
c 
c i 14.59 644 85 1 109  857  621 27% 28 124595 2019 38%
c i 14.60 644 85 1 111  888  646 27% 29 124595 2018 38%
c i 14.64 644 85 1 117  914  665 27% 29 124595 2017 38%
c - 14.95 696 84 2 127  958  611 27% 29 124556 2017 38%
c i 14.96 696 84 2 127  964  616 27% 29 124556 2016 38%
c i 14.96 696 84 2 127  965  616 27% 29 124556 2015 38%
c i 14.96 696 83 2 127  978  628 27% 29 124556 2014 38%
c } 14.98 696 82 2 127 1000  647 27% 29 124556 2014 38%
c [ 14.98 696  0 2 127 1000  647  0% 0 124556 2014 38%
c O 14.99 696 24 2 127 1003  649 26% 15 124556 2014 38%
c i 14.99 696 24 2 127 1003  649 26% 15 124556 1991 37%
c i 15.00 696 21 2 127 1011  656 30% 13 124556 1990 37%
c i 15.00 696 20 2 127 1013  657 30% 13 124556 1989 37%
c i 15.01 696 18 2 127 1029  666 32% 14 124556 1988 37%
c i 15.02 696 18 2 127 1076  697 31% 13 124556 1987 37%
c i 15.05 696 20 2 127 1219  775 30% 17 124556 1986 37%
c - 15.39 693 20 3 127 1943  848 30% 17 123933 1986 37%
c ] 15.63 693 23 3 128 2679 1286 30% 20 123933 1986 37%
c 1 15.63 693 23 3 128 2679 1286 30% 20 123933 1986 37%
c 
c --- [ writing output ] -----------------------------------------------------
c 
c writing simplified CNF to DIMACS file 'simp/23.cubes788.adj.simp1'
c * 15.63 693 23 3 128 2679 1286 30% 20 123933 1986 37%
c opening file to write 'simp/23.cubes788.adj.simp1'
c writing 'p cnf 5320 123933' header
c closing file 'simp/23.cubes788.adj.simp1'
c after writing 55498434 bytes 52.9 MB
c wrote 123933 clauses in 0.44 seconds process time
c 
c --- [ writing extension ] --------------------------------------------------
c 
c writing extension stack to 'simp/23.cubes788.adj.ext1'
c opening file to write 'simp/23.cubes788.adj.ext1'
c closing file 'simp/23.cubes788.adj.ext1'
c after writing 7198 bytes 0.0 MB
c wrote 497 witnesses in 0.00 seconds process time
c 
c --- [ result ] -------------------------------------------------------------
c 
s SATISFIABLE
c 
c --- [ run-time profiling ] -------------------------------------------------
c 
c process time taken by individual solving procedures
c (percentage relative to process time for solving)
c 
c         8.27  112.30% parse
c         7.36  100.00% search
c         6.39   86.85% unstable
c         0.66    8.91% stable
c         0.31    4.24% lucky
c         0.00    0.00% simplify
c   =================================
c         7.36   45.79% solve
c 
c last line shows process time for solving
c (percentage relative to total process time)
c 
c --- [ statistics ] ---------------------------------------------------------
c 
c chronological:               629        23.48 %  of conflicts
c conflicts:                  2679       363.84    per second
c decisions:                 19468      2644.02    per second
c fixed:                       497         9.34 %  of all variables
c learned:                    2591        96.72 %  per conflict
c learned_lits:             509054       100.00 %  learned literals
c minimized:                     0         0.00 %  learned literals
c shrunken:                 376207        73.90 %  learned literals
c minishrunken:              18040         3.54 %  learned literals
c propagations:             373550         0.05 M  per second
c reduced:                     386        14.41 %  per conflict
c rephased:                      1      2679.00    interval
c restarts:                    128        20.93    interval
c stabilizing:                   1        62.67 %  of conflicts
c subsumed:                    885         0.05 %  of all clauses
c 
c seconds are measured in process time for solving
c 
c --- [ resources ] ----------------------------------------------------------
c 
c total process time since initialization:        16.08    seconds
c total real time since initialization:           16.18    seconds
c maximum resident set size of process:          745.12    MB
c 
c --- [ shutting down ] ------------------------------------------------------
c 
c exit 10
WARNING! DIMACS header mismatch: wrong number of variables.
============================[ Problem Statistics ]=============================
|                                                                             |
|  Number of variables:          5282                                         |
|  Number of clauses:          123933                                         |
|  Parse time:                   0.79 s                                       |
|  Simplification time:          0.01 s                                       |
|                                                                             |
============================[ Search Statistics ]====================================================
| Conflicts |          ORIGINAL         |          LEARNT          | Num Sols |      SUBGRAPHS      |
|           |    Vars  Clauses Literals |    Limit  Clauses Lit/Cl |          | Canonical Noncanon. |
=====================================================================================================
|       104 |    5204   123937 12367908 |     2000      104    111 |        0 |        15         4 |
|       256 |    5203   123939 12367981 |     2000      255    101 |        0 |        25         6 |
|       498 |    5199   123956 12368638 |     2000      493     98 |        0 |        40        23 |
|       872 |    5195   123993 12369472 |     2000      863    108 |        0 |        60        60 |
|      1394 |    5194   124009 12369812 |     2000     1384    112 |        0 |        70        76 |
|      2169 |    5190   124025 12370100 |     3595     1164     73 |        0 |        88        92 |
|      3316 |    5189   124033 12370226 |     3595     2310     94 |        0 |        99       100 |
|      5042 |    5187   124051 12370640 |     4997     2238     76 |        0 |       114       118 |
|      7621 |    5185   124068 12370981 |     4997     4815     92 |        0 |       127       135 |
|     11960 |    5185   124563 12378114 |     7557     3517     54 |        0 |       277       630 |
|     18203 |    5185   125040 12383246 |     8778     5981     56 |        0 |       353      1107 |
|     27493 |    5185   125681 12390542 |    11196     5889     38 |        0 |       481      1748 |
|     40720 |    5185   125934 12394863 |    13601     7321     40 |        0 |       580      2001 |
|     61110 |    5142   126863 12404717 |    16004    13514     52 |        0 |       675      2930 |
=====================================================================================================
Number of solutions   : 0
Canonical subgraphs   : 814            (187 /sec)
          order  3    : 1              (166667 /sec)
          order  4    : 1              (500000 /sec)
          order  5    : 1              (250000 /sec)
          order  6    : 1              (52632 /sec)
          order  7    : 2              (9709 /sec)
          order  8    : 5              (3828 /sec)
          order  9    : 7              (2097 /sec)
          order 10    : 19             (1083 /sec)
          order 11    : 34             (651 /sec)
          order 12    : 128            (389 /sec)
          order 13    : 199            (262 /sec)
          order 14    : 177            (168 /sec)
          order 15    : 205            (117 /sec)
          order 16    : 32             (87 /sec)
          order 17    : 2              (64 /sec)
          order 18    : 0              (-nan /sec)
          order 19    : 0              (-nan /sec)
          order 20    : 0              (-nan /sec)
          order 21    : 0              (-nan /sec)
Noncanonical subgraphs: 3917           (1359 /sec)
          order  3    : 0              (-nan /sec)
          order  4    : 0              (-nan /sec)
          order  5    : 0              (-nan /sec)
          order  6    : 0              (-nan /sec)
          order  7    : 0              (-nan /sec)
          order  8    : 0              (-nan /sec)
          order  9    : 0              (-nan /sec)
          order 10    : 0              (-nan /sec)
          order 11    : 0              (-nan /sec)
          order 12    : 0              (-nan /sec)
          order 13    : 679            (9247 /sec)
          order 14    : 804            (5533 /sec)
          order 15    : 2165           (1027 /sec)
          order 16    : 228            (516 /sec)
          order 17    : 39             (363 /sec)
          order 18    : 2              (293 /sec)
          order 19    : 0              (-nan /sec)
          order 20    : 0              (-nan /sec)
Canonicity checking   : 4.36281 s
Noncanonicity checking: 2.88299 s
Total canonicity time : 7.2458 s
database reductions   : 13
restarts              : 236
conflicts             : 75047          (2495 /sec)
decisions             : 117497         (0.00 % random) (3907 /sec)
propagations          : 8146942        (270902 /sec)
conflict literals     : 6664859        (61.67 % deleted)
actual reward         : 0.120444
Memory used           : 169.00 MB
CPU time              : 30.0734 s

UNSATISFIABLE
